NAME : rnd30_20.tsp
TYPE : TSP
DIMENSION : 20
EDGE_WEIGHT_TYPE : EUC_2D
NODE_COORD_SECTION
1 651 103
2 945 467
3 541 511
4 888 528
5 743 413
6 688 236
7 254 789
8 128 358
9 2 793
10 269 70
11 755 465
12 679 930
13 556 602
14 756 348
15 511 427
16 804 272
17 929 355
18 361 624
19 690 25
20 220 231
